\ENCODING=ISO-8859-1
\Problem name: 

Maximize
 obj: 0.200000002980232 V_0 + 0.200000002980232 V_1 + 0.200000002980232 V_2
      + 0.200000002980232 V_3 + 0.200000002980232 V_4 - 11.9777548550987 r_0_2
      - 0.730566458208947 r_1_1 - 0.291631292498512 r_2_0
      + 7.31555658717298e-7 r_2_2 - 0.279261437068019 r_3_1
      - 6.72076793974028 r_4_1
Subject To
 c1:  - Q_0_0 + 0.481712201237678 V_1 + 0.468287770450115 V_2 + r_0_0  = 0
 c2:  - Q_1_0 + 0.252088940143585 V_0 + 0.697911059856415 V_2 + r_1_0  = 0
 c3:  - Q_2_0 + 0.678213521838188 V_1 + 0.271786449849606 V_3 + r_2_0  = 0
 c4:  - Q_3_0 + 0.58976783156395 V_0 + 0.360232140123844 V_1 + r_3_0  = 0
 c5:  - Q_4_0 + 0.124323809891939 V_0 + 0.825676175951958 V_2 + r_4_0  = 0
 c6:  - Q_0_1 + 0.555719742178917 V_0 + 0.394280201196671 V_2 + r_0_1  = 0
 c7:  - Q_1_1 + 0.455506989359856 V_1 + 0.494492954015732 V_4 + r_1_1  = 0
 c8:  - Q_2_1 + 0.772835463285446 V_0 + 0.177164550870657 V_4 + r_2_1  = 0
 c9:  - Q_3_1 + 0.328118453919888 V_2 + 0.621881574392319 V_4 + r_3_1  = 0
 c10: - Q_4_1 + 0.919654297828674 V_0 + 0.0303457163274288 V_4 + r_4_1  = 0
 c11: - Q_0_2 + 0.467280592024326 V_0 + 0.482719379663467 V_4 + r_0_2  = 0
 c12: - Q_1_2 + 0.00800281935371458 V_0 + 0.941997158527374 V_2 + r_1_2  = 0
 c13: - Q_2_2 + 0.580794164538384 V_0 + 0.369205835461617 V_2 + r_2_2  = 0
 c14: - Q_3_2 + 0.636354774236679 V_0 + 0.313645225763321 V_2 + r_3_2  = 0
 c15: - Q_4_2 + 0.430585905909538 V_2 + 0.519414037466049 V_3 + r_4_2  = 0
 c16: - Q_0_0 + V_0 >= 0
 c17: - Q_1_0 + V_1 >= 0
 c18: - Q_2_0 + V_2 >= 0
 c19: - Q_3_0 + V_3 >= 0
 c20: - Q_4_0 + V_4 >= 0
 c21: - Q_0_1 + V_0 >= 0
 c22: - Q_1_1 + V_1 >= 0
 c23: - Q_2_1 + V_2 >= 0
 c24: - Q_3_1 + V_3 >= 0
 c25: - Q_4_1 + V_4 >= 0
 c26: - Q_0_2 + V_0 >= 0
 c27: - Q_1_2 + V_1 >= 0
 c28: - Q_2_2 + V_2 >= 0
 c29: - Q_3_2 + V_3 >= 0
 c30: - Q_4_2 + V_4 >= 0
 c31: - Q_0_0 + V_0 + 399.233594556659 I_0_0 <= 399.233594556659
 c32: - Q_1_0 + V_1 + 399.233606295249 I_1_0 <= 399.233606295249
 c33: - Q_2_0 + V_2 + 399.233598123889 I_2_0 <= 399.233598123889
 c34: - Q_3_0 + V_3 + 399.233603780207 I_3_0 <= 399.233603780207
 c35: - Q_4_0 + V_4 + 399.233603617306 I_4_0 <= 399.233603617306
 c36: - Q_0_1 + V_0 + 399.233589172359 I_0_1 <= 399.233589172359
 c37: - Q_1_1 + V_1 + 399.233592533053 I_1_1 <= 399.233592533053
 c38: - Q_2_1 + V_2 + 399.233606794146 I_2_1 <= 399.233606794146
 c39: - Q_3_1 + V_3 + 399.233618129675 I_3_1 <= 399.233618129675
 c40: - Q_4_1 + V_4 + 399.233605887036 I_4_1 <= 399.233605887036
 c41: - Q_0_2 + V_0 + 399.233594149369 I_0_2 <= 399.233594149369
 c42: - Q_1_2 + V_1 + 399.233602897988 I_1_2 <= 399.233602897988
 c43: - Q_2_2 + V_2 + 399.233605151947 I_2_2 <= 399.233605151947
 c44: - Q_3_2 + V_3 + 399.233611169001 I_3_2 <= 399.233611169001
 c45: - Q_4_2 + V_4 + 399.233595351433 I_4_2 <= 399.233595351433
 c46: I_0_0 + I_0_1 + I_0_2  = 1
 c47: I_1_0 + I_1_1 + I_1_2  = 1
 c48: I_2_0 + I_2_1 + I_2_2  = 1
 c49: I_3_0 + I_3_1 + I_3_2  = 1
 c50: I_4_0 + I_4_1 + I_4_2  = 1
Bounds
      Q_0_0 Free
      Q_0_1 Free
      Q_0_2 Free
      Q_1_0 Free
      Q_1_1 Free
      Q_1_2 Free
      Q_2_0 Free
      Q_2_1 Free
      Q_2_2 Free
      Q_3_0 Free
      Q_3_1 Free
      Q_3_2 Free
      Q_4_0 Free
      Q_4_1 Free
      Q_4_2 Free
      V_0 Free
      V_1 Free
      V_2 Free
      V_3 Free
      V_4 Free
 0 <= I_0_0 <= Inf
 0 <= I_0_1 <= Inf
 0 <= I_0_2 <= Inf
 0 <= I_1_0 <= Inf
 0 <= I_1_1 <= Inf
 0 <= I_1_2 <= Inf
 0 <= I_2_0 <= Inf
 0 <= I_2_1 <= Inf
 0 <= I_2_2 <= Inf
 0 <= I_3_0 <= Inf
 0 <= I_3_1 <= Inf
 0 <= I_3_2 <= Inf
 0 <= I_4_0 <= Inf
 0 <= I_4_1 <= Inf
 0 <= I_4_2 <= Inf
-10 <= r_0_0 <= 10
-10 <= r_0_1 <= 10
-10 <= r_0_2 <= 10
-10 <= r_1_0 <= 10
-10 <= r_1_1 <= 10
-10 <= r_1_2 <= 10
-10 <= r_2_0 <= 10
-10 <= r_2_1 <= 10
-10 <= r_2_2 <= 10
-10 <= r_3_0 <= 10
-10 <= r_3_1 <= 10
-10 <= r_3_2 <= 10
-10 <= r_4_0 <= 10
-10 <= r_4_1 <= 10
-10 <= r_4_2 <= 10
Binaries
 I_0_0  I_0_1  I_0_2  I_1_0  I_1_1  I_1_2  I_2_0  I_2_1  I_2_2  I_3_0  I_3_1 
 I_3_2  I_4_0  I_4_1  I_4_2 
End
